5344.96
0 28 31 32 20 18 15 25 14 12 19 17 24 16 11 22 13 21 2 8 7 5 1 9 3 6 4 10 0
0 23 26 27 33 30 0
0 29 39 36 48 45 34 41 38 43 37 40 46 35 51 53 54 0
0 65 68 91 47 49 42 44 55 57 61 52 50 56 0
0 70 66 69 67 63 60 62 59 58 71 72 75 77 0
0 87 90 84 82 85 83 81 74 79 76 80 73 78 0
0 89 86 88 92 108 109 120 116 124 132 104 105 99 100 101 102 106 93 94 95 98 96 0
0 118 115 110 107 103 97 141 0
0 129 123 111 119 113 117 112 0
0 121 131 114 136 0
0 133 134 122 127 125 128 126 144 0
0 139 146 137 140 149 145 135 0
0 148 142 138 130 64 150 0
0 143 147 0
